
     Program PWSCF v.7.4.1 starts on 17Nov2025 at  4:22:54 

     This program is part of the open-source Quantum ESPRESSO suite
     for quantum simulation of materials; please cite
         "P. Giannozzi et al., J. Phys.:Condens. Matter 21 395502 (2009);
         "P. Giannozzi et al., J. Phys.:Condens. Matter 29 465901 (2017);
         "P. Giannozzi et al., J. Chem. Phys. 152 154105 (2020);
          URL http://www.quantum-espresso.org", 
     in publications or presentations arising from this work. More details at
     http://www.quantum-espresso.org/quote

     Parallel version (MPI), running on     4 processors

     MPI processes distributed on     1 nodes
     15959 MiB available memory on the printing compute node when the environment starts

     Reading input from silicon_bands.in

     Current dimensions of program PWSCF are:
     Max number of different atomic species (ntypx) = 10
     Max number of k-points (npk) =  40000
     Max angular momentum in pseudopotentials (lmaxx) =  4

     Atomic positions and unit cell read from directory:
     ./tmp/silicon.save/


     R & G space division:  proc/nbgrp/npool/nimage =       4
     Subspace diagonalization in iterative solution of the eigenvalue problem:
     a serial algorithm will be used


     Parallelization info
     --------------------
     sticks:   dense  smooth     PW     G-vecs:    dense   smooth      PW
     Min         108     108     34                 1489     1489     266
     Max         109     109     35                 1492     1492     267
     Sum         433     433    139                 5961     5961    1067

     Using Slab Decomposition



     bravais-lattice index     =            2
     lattice parameter (alat)  =      10.2600  a.u.
     unit-cell volume          =     270.0114 (a.u.)^3
     number of atoms/cell      =            2
     number of atomic types    =            1
     number of electrons       =         8.00
     number of Kohn-Sham states=            8
     kinetic-energy cutoff     =      30.0000  Ry
     charge density cutoff     =     120.0000  Ry
     Exchange-correlation= PBE
                           (   1   4   3   4   0   0   0)

     celldm(1)=  10.260000  celldm(2)=   0.000000  celldm(3)=   0.000000
     celldm(4)=   0.000000  celldm(5)=   0.000000  celldm(6)=   0.000000

     crystal axes: (cart. coord. in units of alat)
               a(1) = (  -0.500000   0.000000   0.500000 )  
               a(2) = (   0.000000   0.500000   0.500000 )  
               a(3) = (  -0.500000   0.500000   0.000000 )  

     reciprocal axes: (cart. coord. in units 2 pi/alat)
               b(1) = ( -1.000000 -1.000000  1.000000 )  
               b(2) = (  1.000000  1.000000  1.000000 )  
               b(3) = ( -1.000000  1.000000 -1.000000 )  


     PseudoPot. # 1 for Si read from file:
     ../pseudos/Si.pbe-n-rrkjus_psl.1.0.0.UPF
     MD5 check sum: 0b0bb1205258b0d07b9f9672cf965d36
     Pseudo is Ultrasoft + core correction, Zval =  4.0
     Generated using "atomic" code by A. Dal Corso  v.5.1
     Using radial grid of 1141 points,  6 beta functions with: 
                l(1) =   0
                l(2) =   0
                l(3) =   1
                l(4) =   1
                l(5) =   2
                l(6) =   2
     Q(r) pseudized with 0 coefficients 


     atomic species   valence    mass     pseudopotential
     Si                4.00    28.08600     Si( 1.00)

     48 Sym. Ops., with inversion, found (24 have fractional translation)


                                    s                        frac. trans.

      isym =  1     identity                                     

 cryst.   s( 1) = (     1          0          0      )
                  (     0          1          0      )
                  (     0          0          1      )

 cart.    s( 1) = (  1.0000000  0.0000000  0.0000000 )
                  (  0.0000000  1.0000000  0.0000000 )
                  (  0.0000000  0.0000000  1.0000000 )


      isym =  2     180 deg rotation - cart. axis [0,0,1]        

 cryst.   s( 2) = (     0          1         -1      )
                  (     1          0         -1      )
                  (     0          0         -1      )

 cart.    s( 2) = ( -1.0000000  0.0000000  0.0000000 )
                  (  0.0000000 -1.0000000  0.0000000 )
                  (  0.0000000  0.0000000  1.0000000 )


      isym =  3     180 deg rotation - cart. axis [0,1,0]        

 cryst.   s( 3) = (    -1          0          0      )
                  (    -1          0          1      )
                  (    -1          1          0      )

 cart.    s( 3) = ( -1.0000000  0.0000000  0.0000000 )
                  (  0.0000000  1.0000000  0.0000000 )
                  (  0.0000000  0.0000000 -1.0000000 )


      isym =  4     180 deg rotation - cart. axis [1,0,0]        

 cryst.   s( 4) = (     0         -1          1      )
                  (     0         -1          0      )
                  (     1         -1          0      )

 cart.    s( 4) = (  1.0000000  0.0000000  0.0000000 )
                  (  0.0000000 -1.0000000  0.0000000 )
                  (  0.0000000  0.0000000 -1.0000000 )


      isym =  5     180 deg rotation - cart. axis [1,1,0]        

 cryst.   s( 5) = (     0         -1          0      )    f =(  0.2500000 )
                  (    -1          0          0      )       (  0.2500000 )
                  (     0          0         -1      )       (  0.2500000 )

 cart.    s( 5) = (  0.0000000  1.0000000  0.0000000 )    f =( -0.2500000 )
                  (  1.0000000  0.0000000  0.0000000 )       (  0.2500000 )
                  (  0.0000000  0.0000000 -1.0000000 )       (  0.2500000 )


      isym =  6     180 deg rotation - cart. axis [1,-1,0]       

 cryst.   s( 6) = (    -1          0          1      )    f =(  0.2500000 )
                  (     0         -1          1      )       (  0.2500000 )
                  (     0          0          1      )       (  0.2500000 )

 cart.    s( 6) = (  0.0000000 -1.0000000  0.0000000 )    f =( -0.2500000 )
                  ( -1.0000000  0.0000000  0.0000000 )       (  0.2500000 )
                  (  0.0000000  0.0000000 -1.0000000 )       (  0.2500000 )


      isym =  7      90 deg rotation - cart. axis [0,0,-1]       

 cryst.   s( 7) = (     0          1          0      )    f =(  0.2500000 )
                  (     0          1         -1      )       (  0.2500000 )
                  (    -1          1          0      )       (  0.2500000 )

 cart.    s( 7) = (  0.0000000  1.0000000  0.0000000 )    f =( -0.2500000 )
                  ( -1.0000000  0.0000000  0.0000000 )       (  0.2500000 )
                  (  0.0000000  0.0000000  1.0000000 )       (  0.2500000 )


      isym =  8      90 deg rotation - cart. axis [0,0,1]        

 cryst.   s( 8) = (     1          0         -1      )    f =(  0.2500000 )
                  (     1          0          0      )       (  0.2500000 )
                  (     1         -1          0      )       (  0.2500000 )

 cart.    s( 8) = (  0.0000000 -1.0000000  0.0000000 )    f =( -0.2500000 )
                  (  1.0000000  0.0000000  0.0000000 )       (  0.2500000 )
                  (  0.0000000  0.0000000  1.0000000 )       (  0.2500000 )


      isym =  9     180 deg rotation - cart. axis [1,0,1]        

 cryst.   s( 9) = (    -1          0          0      )    f =(  0.2500000 )
                  (     0          0         -1      )       (  0.2500000 )
                  (     0         -1          0      )       (  0.2500000 )

 cart.    s( 9) = (  0.0000000  0.0000000  1.0000000 )    f =( -0.2500000 )
                  (  0.0000000 -1.0000000  0.0000000 )       (  0.2500000 )
                  (  1.0000000  0.0000000  0.0000000 )       (  0.2500000 )


      isym = 10     180 deg rotation - cart. axis [-1,0,1]       

 cryst.   s(10) = (     1          0          0      )    f =(  0.2500000 )
                  (     1         -1          0      )       (  0.2500000 )
                  (     1          0         -1      )       (  0.2500000 )

 cart.    s(10) = (  0.0000000  0.0000000 -1.0000000 )    f =( -0.2500000 )
                  (  0.0000000 -1.0000000  0.0000000 )       (  0.2500000 )
                  ( -1.0000000  0.0000000  0.0000000 )       (  0.2500000 )


      isym = 11      90 deg rotation - cart. axis [0,1,0]        

 cryst.   s(11) = (     0          1         -1      )    f =(  0.2500000 )
                  (    -1          1          0      )       (  0.2500000 )
                  (     0          1          0      )       (  0.2500000 )

 cart.    s(11) = (  0.0000000  0.0000000  1.0000000 )    f =( -0.2500000 )
                  (  0.0000000  1.0000000  0.0000000 )       (  0.2500000 )
                  ( -1.0000000  0.0000000  0.0000000 )       (  0.2500000 )


      isym = 12      90 deg rotation - cart. axis [0,-1,0]       

 cryst.   s(12) = (     0         -1          1      )    f =(  0.2500000 )
                  (     0          0          1      )       (  0.2500000 )
                  (    -1          0          1      )       (  0.2500000 )

 cart.    s(12) = (  0.0000000  0.0000000 -1.0000000 )    f =( -0.2500000 )
                  (  0.0000000  1.0000000  0.0000000 )       (  0.2500000 )
                  (  1.0000000  0.0000000  0.0000000 )       (  0.2500000 )


      isym = 13     180 deg rotation - cart. axis [0,1,1]        

 cryst.   s(13) = (    -1          1          0      )    f =(  0.2500000 )
                  (     0          1          0      )       (  0.2500000 )
                  (     0          1         -1      )       (  0.2500000 )

 cart.    s(13) = ( -1.0000000  0.0000000  0.0000000 )    f =( -0.2500000 )
                  (  0.0000000  0.0000000  1.0000000 )       (  0.2500000 )
                  (  0.0000000  1.0000000  0.0000000 )       (  0.2500000 )


      isym = 14     180 deg rotation - cart. axis [0,1,-1]       

 cryst.   s(14) = (     0          0         -1      )    f =(  0.2500000 )
                  (     0         -1          0      )       (  0.2500000 )
                  (    -1          0          0      )       (  0.2500000 )

 cart.    s(14) = ( -1.0000000  0.0000000  0.0000000 )    f =( -0.2500000 )
                  (  0.0000000  0.0000000 -1.0000000 )       (  0.2500000 )
                  (  0.0000000 -1.0000000  0.0000000 )       (  0.2500000 )


      isym = 15      90 deg rotation - cart. axis [-1,0,0]       

 cryst.   s(15) = (     0          0          1      )    f =(  0.2500000 )
                  (    -1          0          1      )       (  0.2500000 )
                  (     0         -1          1      )       (  0.2500000 )

 cart.    s(15) = (  1.0000000  0.0000000  0.0000000 )    f =( -0.2500000 )
                  (  0.0000000  0.0000000  1.0000000 )       (  0.2500000 )
                  (  0.0000000 -1.0000000  0.0000000 )       (  0.2500000 )


      isym = 16      90 deg rotation - cart. axis [1,0,0]        

 cryst.   s(16) = (     1         -1          0      )    f =(  0.2500000 )
                  (     1          0         -1      )       (  0.2500000 )
                  (     1          0          0      )       (  0.2500000 )

 cart.    s(16) = (  1.0000000  0.0000000  0.0000000 )    f =( -0.2500000 )
                  (  0.0000000  0.0000000 -1.0000000 )       (  0.2500000 )
                  (  0.0000000  1.0000000  0.0000000 )       (  0.2500000 )


      isym = 17     120 deg rotation - cart. axis [-1,-1,-1]     

 cryst.   s(17) = (    -1          0          1      )
                  (    -1          1          0      )
                  (    -1          0          0      )

 cart.    s(17) = (  0.0000000  1.0000000  0.0000000 )
                  (  0.0000000  0.0000000  1.0000000 )
                  (  1.0000000  0.0000000  0.0000000 )


      isym = 18     120 deg rotation - cart. axis [-1,1,1]       

 cryst.   s(18) = (     0          1          0      )
                  (     0          0          1      )
                  (     1          0          0      )

 cart.    s(18) = (  0.0000000 -1.0000000  0.0000000 )
                  (  0.0000000  0.0000000  1.0000000 )
                  ( -1.0000000  0.0000000  0.0000000 )


      isym = 19     120 deg rotation - cart. axis [1,1,-1]       

 cryst.   s(19) = (     1          0         -1      )
                  (     0          0         -1      )
                  (     0          1         -1      )

 cart.    s(19) = (  0.0000000  1.0000000  0.0000000 )
                  (  0.0000000  0.0000000 -1.0000000 )
                  ( -1.0000000  0.0000000  0.0000000 )


      isym = 20     120 deg rotation - cart. axis [1,-1,1]       

 cryst.   s(20) = (     0         -1          0      )
                  (     1         -1          0      )
                  (     0         -1          1      )

 cart.    s(20) = (  0.0000000 -1.0000000  0.0000000 )
                  (  0.0000000  0.0000000 -1.0000000 )
                  (  1.0000000  0.0000000  0.0000000 )


      isym = 21     120 deg rotation - cart. axis [1,1,1]        

 cryst.   s(21) = (     0          0         -1      )
                  (     0          1         -1      )
                  (     1          0         -1      )

 cart.    s(21) = (  0.0000000  0.0000000  1.0000000 )
                  (  1.0000000  0.0000000  0.0000000 )
                  (  0.0000000  1.0000000  0.0000000 )


      isym = 22     120 deg rotation - cart. axis [-1,1,-1]      

 cryst.   s(22) = (    -1          1          0      )
                  (    -1          0          0      )
                  (    -1          0          1      )

 cart.    s(22) = (  0.0000000  0.0000000  1.0000000 )
                  ( -1.0000000  0.0000000  0.0000000 )
                  (  0.0000000 -1.0000000  0.0000000 )


      isym = 23     120 deg rotation - cart. axis [1,-1,-1]      

 cryst.   s(23) = (     0          0          1      )
                  (     1          0          0      )
                  (     0          1          0      )

 cart.    s(23) = (  0.0000000  0.0000000 -1.0000000 )
                  ( -1.0000000  0.0000000  0.0000000 )
                  (  0.0000000  1.0000000  0.0000000 )


      isym = 24     120 deg rotation - cart. axis [-1,-1,1]      

 cryst.   s(24) = (     1         -1          0      )
                  (     0         -1          1      )
                  (     0         -1          0      )

 cart.    s(24) = (  0.0000000  0.0000000 -1.0000000 )
                  (  1.0000000  0.0000000  0.0000000 )
                  (  0.0000000 -1.0000000  0.0000000 )


      isym = 25     inversion                                    

 cryst.   s(25) = (    -1          0          0      )    f =(  0.2500000 )
                  (     0         -1          0      )       (  0.2500000 )
                  (     0          0         -1      )       (  0.2500000 )

 cart.    s(25) = ( -1.0000000  0.0000000  0.0000000 )    f =( -0.2500000 )
                  (  0.0000000 -1.0000000  0.0000000 )       (  0.2500000 )
                  (  0.0000000  0.0000000 -1.0000000 )       (  0.2500000 )


      isym = 26     inv. 180 deg rotation - cart. axis [0,0,1]   

 cryst.   s(26) = (     0         -1          1      )    f =(  0.2500000 )
                  (    -1          0          1      )       (  0.2500000 )
                  (     0          0          1      )       (  0.2500000 )

 cart.    s(26) = (  1.0000000  0.0000000  0.0000000 )    f =( -0.2500000 )
                  (  0.0000000  1.0000000  0.0000000 )       (  0.2500000 )
                  (  0.0000000  0.0000000 -1.0000000 )       (  0.2500000 )


      isym = 27     inv. 180 deg rotation - cart. axis [0,1,0]   

 cryst.   s(27) = (     1          0          0      )    f =(  0.2500000 )
                  (     1          0         -1      )       (  0.2500000 )
                  (     1         -1          0      )       (  0.2500000 )

 cart.    s(27) = (  1.0000000  0.0000000  0.0000000 )    f =( -0.2500000 )
                  (  0.0000000 -1.0000000  0.0000000 )       (  0.2500000 )
                  (  0.0000000  0.0000000  1.0000000 )       (  0.2500000 )


      isym = 28     inv. 180 deg rotation - cart. axis [1,0,0]   

 cryst.   s(28) = (     0          1         -1      )    f =(  0.2500000 )
                  (     0          1          0      )       (  0.2500000 )
                  (    -1          1          0      )       (  0.2500000 )

 cart.    s(28) = ( -1.0000000  0.0000000  0.0000000 )    f =( -0.2500000 )
                  (  0.0000000  1.0000000  0.0000000 )       (  0.2500000 )
                  (  0.0000000  0.0000000  1.0000000 )       (  0.2500000 )


      isym = 29     inv. 180 deg rotation - cart. axis [1,1,0]   

 cryst.   s(29) = (     0          1          0      )
                  (     1          0          0      )
                  (     0          0          1      )

 cart.    s(29) = (  0.0000000 -1.0000000  0.0000000 )
                  ( -1.0000000  0.0000000  0.0000000 )
                  (  0.0000000  0.0000000  1.0000000 )


      isym = 30     inv. 180 deg rotation - cart. axis [1,-1,0]  

 cryst.   s(30) = (     1          0         -1      )
                  (     0          1         -1      )
                  (     0          0         -1      )

 cart.    s(30) = (  0.0000000  1.0000000  0.0000000 )
                  (  1.0000000  0.0000000  0.0000000 )
                  (  0.0000000  0.0000000  1.0000000 )


      isym = 31     inv.  90 deg rotation - cart. axis [0,0,-1]  

 cryst.   s(31) = (     0         -1          0      )
                  (     0         -1          1      )
                  (     1         -1          0      )

 cart.    s(31) = (  0.0000000 -1.0000000  0.0000000 )
                  (  1.0000000  0.0000000  0.0000000 )
                  (  0.0000000  0.0000000 -1.0000000 )


      isym = 32     inv.  90 deg rotation - cart. axis [0,0,1]   

 cryst.   s(32) = (    -1          0          1      )
                  (    -1          0          0      )
                  (    -1          1          0      )

 cart.    s(32) = (  0.0000000  1.0000000  0.0000000 )
                  ( -1.0000000  0.0000000  0.0000000 )
                  (  0.0000000  0.0000000 -1.0000000 )


      isym = 33     inv. 180 deg rotation - cart. axis [1,0,1]   

 cryst.   s(33) = (     1          0          0      )
                  (     0          0          1      )
                  (     0          1          0      )

 cart.    s(33) = (  0.0000000  0.0000000 -1.0000000 )
                  (  0.0000000  1.0000000  0.0000000 )
                  ( -1.0000000  0.0000000  0.0000000 )


      isym = 34     inv. 180 deg rotation - cart. axis [-1,0,1]  

 cryst.   s(34) = (    -1          0          0      )
                  (    -1          1          0      )
                  (    -1          0          1      )

 cart.    s(34) = (  0.0000000  0.0000000  1.0000000 )
                  (  0.0000000  1.0000000  0.0000000 )
                  (  1.0000000  0.0000000  0.0000000 )


      isym = 35     inv.  90 deg rotation - cart. axis [0,1,0]   

 cryst.   s(35) = (     0         -1          1      )
                  (     1         -1          0      )
                  (     0         -1          0      )

 cart.    s(35) = (  0.0000000  0.0000000 -1.0000000 )
                  (  0.0000000 -1.0000000  0.0000000 )
                  (  1.0000000  0.0000000  0.0000000 )


      isym = 36     inv.  90 deg rotation - cart. axis [0,-1,0]  

 cryst.   s(36) = (     0          1         -1      )
                  (     0          0         -1      )
                  (     1          0         -1      )

 cart.    s(36) = (  0.0000000  0.0000000  1.0000000 )
                  (  0.0000000 -1.0000000  0.0000000 )
                  ( -1.0000000  0.0000000  0.0000000 )


      isym = 37     inv. 180 deg rotation - cart. axis [0,1,1]   

 cryst.   s(37) = (     1         -1          0      )
                  (     0         -1          0      )
                  (     0         -1          1      )

 cart.    s(37) = (  1.0000000  0.0000000  0.0000000 )
                  (  0.0000000  0.0000000 -1.0000000 )
                  (  0.0000000 -1.0000000  0.0000000 )


      isym = 38     inv. 180 deg rotation - cart. axis [0,1,-1]  

 cryst.   s(38) = (     0          0          1      )
                  (     0          1          0      )
                  (     1          0          0      )

 cart.    s(38) = (  1.0000000  0.0000000  0.0000000 )
                  (  0.0000000  0.0000000  1.0000000 )
                  (  0.0000000  1.0000000  0.0000000 )


      isym = 39     inv.  90 deg rotation - cart. axis [-1,0,0]  

 cryst.   s(39) = (     0          0         -1      )
                  (     1          0         -1      )
                  (     0          1         -1      )

 cart.    s(39) = ( -1.0000000  0.0000000  0.0000000 )
                  (  0.0000000  0.0000000 -1.0000000 )
                  (  0.0000000  1.0000000  0.0000000 )


      isym = 40     inv.  90 deg rotation - cart. axis [1,0,0]   

 cryst.   s(40) = (    -1          1          0      )
                  (    -1          0          1      )
                  (    -1          0          0      )

 cart.    s(40) = ( -1.0000000  0.0000000  0.0000000 )
                  (  0.0000000  0.0000000  1.0000000 )
                  (  0.0000000 -1.0000000  0.0000000 )


      isym = 41     inv. 120 deg rotation - cart. axis [-1,-1,-1]

 cryst.   s(41) = (     1          0         -1      )    f =(  0.2500000 )
                  (     1         -1          0      )       (  0.2500000 )
                  (     1          0          0      )       (  0.2500000 )

 cart.    s(41) = (  0.0000000 -1.0000000  0.0000000 )    f =( -0.2500000 )
                  (  0.0000000  0.0000000 -1.0000000 )       (  0.2500000 )
                  ( -1.0000000  0.0000000  0.0000000 )       (  0.2500000 )


      isym = 42     inv. 120 deg rotation - cart. axis [-1,1,1]  

 cryst.   s(42) = (     0         -1          0      )    f =(  0.2500000 )
                  (     0          0         -1      )       (  0.2500000 )
                  (    -1          0          0      )       (  0.2500000 )

 cart.    s(42) = (  0.0000000  1.0000000  0.0000000 )    f =( -0.2500000 )
                  (  0.0000000  0.0000000 -1.0000000 )       (  0.2500000 )
                  (  1.0000000  0.0000000  0.0000000 )       (  0.2500000 )


      isym = 43     inv. 120 deg rotation - cart. axis [1,1,-1]  

 cryst.   s(43) = (    -1          0          1      )    f =(  0.2500000 )
                  (     0          0          1      )       (  0.2500000 )
                  (     0         -1          1      )       (  0.2500000 )

 cart.    s(43) = (  0.0000000 -1.0000000  0.0000000 )    f =( -0.2500000 )
                  (  0.0000000  0.0000000  1.0000000 )       (  0.2500000 )
                  (  1.0000000  0.0000000  0.0000000 )       (  0.2500000 )


      isym = 44     inv. 120 deg rotation - cart. axis [1,-1,1]  

 cryst.   s(44) = (     0          1          0      )    f =(  0.2500000 )
                  (    -1          1          0      )       (  0.2500000 )
                  (     0          1         -1      )       (  0.2500000 )

 cart.    s(44) = (  0.0000000  1.0000000  0.0000000 )    f =( -0.2500000 )
                  (  0.0000000  0.0000000  1.0000000 )       (  0.2500000 )
                  ( -1.0000000  0.0000000  0.0000000 )       (  0.2500000 )


      isym = 45     inv. 120 deg rotation - cart. axis [1,1,1]   

 cryst.   s(45) = (     0          0          1      )    f =(  0.2500000 )
                  (     0         -1          1      )       (  0.2500000 )
                  (    -1          0          1      )       (  0.2500000 )

 cart.    s(45) = (  0.0000000  0.0000000 -1.0000000 )    f =( -0.2500000 )
                  ( -1.0000000  0.0000000  0.0000000 )       (  0.2500000 )
                  (  0.0000000 -1.0000000  0.0000000 )       (  0.2500000 )


      isym = 46     inv. 120 deg rotation - cart. axis [-1,1,-1] 

 cryst.   s(46) = (     1         -1          0      )    f =(  0.2500000 )
                  (     1          0          0      )       (  0.2500000 )
                  (     1          0         -1      )       (  0.2500000 )

 cart.    s(46) = (  0.0000000  0.0000000 -1.0000000 )    f =( -0.2500000 )
                  (  1.0000000  0.0000000  0.0000000 )       (  0.2500000 )
                  (  0.0000000  1.0000000  0.0000000 )       (  0.2500000 )


      isym = 47     inv. 120 deg rotation - cart. axis [1,-1,-1] 

 cryst.   s(47) = (     0          0         -1      )    f =(  0.2500000 )
                  (    -1          0          0      )       (  0.2500000 )
                  (     0         -1          0      )       (  0.2500000 )

 cart.    s(47) = (  0.0000000  0.0000000  1.0000000 )    f =( -0.2500000 )
                  (  1.0000000  0.0000000  0.0000000 )       (  0.2500000 )
                  (  0.0000000 -1.0000000  0.0000000 )       (  0.2500000 )


      isym = 48     inv. 120 deg rotation - cart. axis [-1,-1,1] 

 cryst.   s(48) = (    -1          1          0      )    f =(  0.2500000 )
                  (     0          1         -1      )       (  0.2500000 )
                  (     0          1          0      )       (  0.2500000 )

 cart.    s(48) = (  0.0000000  0.0000000  1.0000000 )    f =( -0.2500000 )
                  ( -1.0000000  0.0000000  0.0000000 )       (  0.2500000 )
                  (  0.0000000  1.0000000  0.0000000 )       (  0.2500000 )


     point group O_h (m-3m) 
     there are 10 classes
     the character table:

       E     8C3   3C2   6C4   6C2'  i     8S6   3s_h  6S4   6s_d 
A_1g   1.00  1.00  1.00  1.00  1.00  1.00  1.00  1.00  1.00  1.00
A_2g   1.00  1.00  1.00 -1.00 -1.00  1.00  1.00  1.00 -1.00 -1.00
E_g    2.00 -1.00  2.00  0.00  0.00  2.00 -1.00  2.00  0.00  0.00
T_1g   3.00  0.00 -1.00  1.00 -1.00  3.00  0.00 -1.00  1.00 -1.00
T_2g   3.00  0.00 -1.00 -1.00  1.00  3.00  0.00 -1.00 -1.00  1.00
A_1u   1.00  1.00  1.00  1.00  1.00 -1.00 -1.00 -1.00 -1.00 -1.00
A_2u   1.00  1.00  1.00 -1.00 -1.00 -1.00 -1.00 -1.00  1.00  1.00
E_u    2.00 -1.00  2.00  0.00  0.00 -2.00  1.00 -2.00  0.00  0.00
T_1u   3.00  0.00 -1.00  1.00 -1.00 -3.00  0.00  1.00 -1.00  1.00
T_2u   3.00  0.00 -1.00 -1.00  1.00 -3.00  0.00  1.00  1.00 -1.00

     the symmetry operations in each class and the name of the first element:

     E        1
          identity                                               
     8C3     17   19   20   18   24   21   22   23
          120 deg rotation - cart. axis [-1,-1,-1]               
     3C2      2    4    3
          180 deg rotation - cart. axis [0,0,1]                  
     6C4      7    8   15   16   12   11
           90 deg rotation - cart. axis [0,0,-1]                 
     6C2'     5    6   14   13   10    9
          180 deg rotation - cart. axis [1,1,0]                  
     i       25
          inversion                                              
     8S6     41   43   44   42   48   45   46   47
          inv. 120 deg rotation - cart. axis [-1,-1,-1]          
     3s_h    26   28   27
          inv. 180 deg rotation - cart. axis [0,0,1]             
     6S4     31   32   39   40   36   35
          inv.  90 deg rotation - cart. axis [0,0,-1]            
     6s_d    29   30   38   37   34   33
          inv. 180 deg rotation - cart. axis [1,1,0]             

   Cartesian axes

     site n.     atom                  positions (alat units)
         1        Si     tau(   1) = (   0.0000000   0.0000000   0.0000000  )
         2        Si     tau(   2) = (   0.2500000   0.2500000   0.2500000  )

   Crystallographic axes

     site n.     atom                  positions (cryst. coord.)
         1        Si     tau(   1) = (  0.0000000  0.0000000  0.0000000  )
         2        Si     tau(   2) = ( -0.2500000  0.7500000 -0.2500000  )

     number of k points=    91
                       cart. coord. in units 2pi/alat
        k(    1) = (   0.5000000   0.5000000   0.5000000), wk =   0.0219780
        k(    2) = (   0.4750000   0.4750000   0.4750000), wk =   0.0219780
        k(    3) = (   0.4500000   0.4500000   0.4500000), wk =   0.0219780
        k(    4) = (   0.4250000   0.4250000   0.4250000), wk =   0.0219780
        k(    5) = (   0.4000000   0.4000000   0.4000000), wk =   0.0219780
        k(    6) = (   0.3750000   0.3750000   0.3750000), wk =   0.0219780
        k(    7) = (   0.3500000   0.3500000   0.3500000), wk =   0.0219780
        k(    8) = (   0.3250000   0.3250000   0.3250000), wk =   0.0219780
        k(    9) = (   0.3000000   0.3000000   0.3000000), wk =   0.0219780
        k(   10) = (   0.2750000   0.2750000   0.2750000), wk =   0.0219780
        k(   11) = (   0.2500000   0.2500000   0.2500000), wk =   0.0219780
        k(   12) = (   0.2250000   0.2250000   0.2250000), wk =   0.0219780
        k(   13) = (   0.2000000   0.2000000   0.2000000), wk =   0.0219780
        k(   14) = (   0.1750000   0.1750000   0.1750000), wk =   0.0219780
        k(   15) = (   0.1500000   0.1500000   0.1500000), wk =   0.0219780
        k(   16) = (   0.1250000   0.1250000   0.1250000), wk =   0.0219780
        k(   17) = (   0.1000000   0.1000000   0.1000000), wk =   0.0219780
        k(   18) = (   0.0750000   0.0750000   0.0750000), wk =   0.0219780
        k(   19) = (   0.0500000   0.0500000   0.0500000), wk =   0.0219780
        k(   20) = (   0.0250000   0.0250000   0.0250000), wk =   0.0219780
        k(   21) = (   0.0000000   0.0000000   0.0000000), wk =   0.0219780
        k(   22) = (   0.0333333   0.0000000   0.0000000), wk =   0.0219780
        k(   23) = (   0.0666667   0.0000000   0.0000000), wk =   0.0219780
        k(   24) = (   0.1000000   0.0000000   0.0000000), wk =   0.0219780
        k(   25) = (   0.1333333   0.0000000   0.0000000), wk =   0.0219780
        k(   26) = (   0.1666667   0.0000000   0.0000000), wk =   0.0219780
        k(   27) = (   0.2000000   0.0000000   0.0000000), wk =   0.0219780
        k(   28) = (   0.2333333   0.0000000   0.0000000), wk =   0.0219780
        k(   29) = (   0.2666667   0.0000000   0.0000000), wk =   0.0219780
        k(   30) = (   0.3000000   0.0000000   0.0000000), wk =   0.0219780
        k(   31) = (   0.3333333   0.0000000   0.0000000), wk =   0.0219780
        k(   32) = (   0.3666667   0.0000000   0.0000000), wk =   0.0219780
        k(   33) = (   0.4000000   0.0000000   0.0000000), wk =   0.0219780
        k(   34) = (   0.4333333   0.0000000   0.0000000), wk =   0.0219780
        k(   35) = (   0.4666667   0.0000000   0.0000000), wk =   0.0219780
        k(   36) = (   0.5000000   0.0000000   0.0000000), wk =   0.0219780
        k(   37) = (   0.5333333   0.0000000   0.0000000), wk =   0.0219780
        k(   38) = (   0.5666667   0.0000000   0.0000000), wk =   0.0219780
        k(   39) = (   0.6000000   0.0000000   0.0000000), wk =   0.0219780
        k(   40) = (   0.6333333   0.0000000   0.0000000), wk =   0.0219780
        k(   41) = (   0.6666667   0.0000000   0.0000000), wk =   0.0219780
        k(   42) = (   0.7000000   0.0000000   0.0000000), wk =   0.0219780
        k(   43) = (   0.7333333   0.0000000   0.0000000), wk =   0.0219780
        k(   44) = (   0.7666667   0.0000000   0.0000000), wk =   0.0219780
        k(   45) = (   0.8000000   0.0000000   0.0000000), wk =   0.0219780
        k(   46) = (   0.8333333   0.0000000   0.0000000), wk =   0.0219780
        k(   47) = (   0.8666667   0.0000000   0.0000000), wk =   0.0219780
        k(   48) = (   0.9000000   0.0000000   0.0000000), wk =   0.0219780
        k(   49) = (   0.9333333   0.0000000   0.0000000), wk =   0.0219780
        k(   50) = (   0.9666667   0.0000000   0.0000000), wk =   0.0219780
        k(   51) = (   1.0000000   0.0000000   0.0000000), wk =   0.0219780
        k(   52) = (   1.0000000   0.0250000   0.0250000), wk =   0.0219780
        k(   53) = (   1.0000000   0.0500000   0.0500000), wk =   0.0219780
        k(   54) = (   1.0000000   0.0750000   0.0750000), wk =   0.0219780
        k(   55) = (   1.0000000   0.1000000   0.1000000), wk =   0.0219780
        k(   56) = (   1.0000000   0.1250000   0.1250000), wk =   0.0219780
        k(   57) = (   1.0000000   0.1500000   0.1500000), wk =   0.0219780
        k(   58) = (   1.0000000   0.1750000   0.1750000), wk =   0.0219780
        k(   59) = (   1.0000000   0.2000000   0.2000000), wk =   0.0219780
        k(   60) = (   1.0000000   0.2250000   0.2250000), wk =   0.0219780
        k(   61) = (   1.0000000   0.2500000   0.2500000), wk =   0.0219780
        k(   62) = (   0.9666667   0.2416667   0.2416667), wk =   0.0219780
        k(   63) = (   0.9333333   0.2333333   0.2333333), wk =   0.0219780
        k(   64) = (   0.9000000   0.2250000   0.2250000), wk =   0.0219780
        k(   65) = (   0.8666667   0.2166667   0.2166667), wk =   0.0219780
        k(   66) = (   0.8333333   0.2083333   0.2083333), wk =   0.0219780
        k(   67) = (   0.8000000   0.2000000   0.2000000), wk =   0.0219780
        k(   68) = (   0.7666667   0.1916667   0.1916667), wk =   0.0219780
        k(   69) = (   0.7333333   0.1833333   0.1833333), wk =   0.0219780
        k(   70) = (   0.7000000   0.1750000   0.1750000), wk =   0.0219780
        k(   71) = (   0.6666667   0.1666667   0.1666667), wk =   0.0219780
        k(   72) = (   0.6333333   0.1583333   0.1583333), wk =   0.0219780
        k(   73) = (   0.6000000   0.1500000   0.1500000), wk =   0.0219780
        k(   74) = (   0.5666667   0.1416667   0.1416667), wk =   0.0219780
        k(   75) = (   0.5333333   0.1333333   0.1333333), wk =   0.0219780
        k(   76) = (   0.5000000   0.1250000   0.1250000), wk =   0.0219780
        k(   77) = (   0.4666667   0.1166667   0.1166667), wk =   0.0219780
        k(   78) = (   0.4333333   0.1083333   0.1083333), wk =   0.0219780
        k(   79) = (   0.4000000   0.1000000   0.1000000), wk =   0.0219780
        k(   80) = (   0.3666667   0.0916667   0.0916667), wk =   0.0219780
        k(   81) = (   0.3333333   0.0833333   0.0833333), wk =   0.0219780
        k(   82) = (   0.3000000   0.0750000   0.0750000), wk =   0.0219780
        k(   83) = (   0.2666667   0.0666667   0.0666667), wk =   0.0219780
        k(   84) = (   0.2333333   0.0583333   0.0583333), wk =   0.0219780
        k(   85) = (   0.2000000   0.0500000   0.0500000), wk =   0.0219780
        k(   86) = (   0.1666667   0.0416667   0.0416667), wk =   0.0219780
        k(   87) = (   0.1333333   0.0333333   0.0333333), wk =   0.0219780
        k(   88) = (   0.1000000   0.0250000   0.0250000), wk =   0.0219780
        k(   89) = (   0.0666667   0.0166667   0.0166667), wk =   0.0219780
        k(   90) = (   0.0333333   0.0083333   0.0083333), wk =   0.0219780
        k(   91) = (   0.0000000   0.0000000   0.0000000), wk =   0.0219780

                       cryst. coord.
        k(    1) = (   0.0000000   0.5000000   0.0000000), wk =   0.0219780
        k(    2) = (   0.0000000   0.4750000   0.0000000), wk =   0.0219780
        k(    3) = (   0.0000000   0.4500000   0.0000000), wk =   0.0219780
        k(    4) = (   0.0000000   0.4250000   0.0000000), wk =   0.0219780
        k(    5) = (   0.0000000   0.4000000   0.0000000), wk =   0.0219780
        k(    6) = (   0.0000000   0.3750000   0.0000000), wk =   0.0219780
        k(    7) = (   0.0000000   0.3500000   0.0000000), wk =   0.0219780
        k(    8) = (   0.0000000   0.3250000   0.0000000), wk =   0.0219780
        k(    9) = (   0.0000000   0.3000000   0.0000000), wk =   0.0219780
        k(   10) = (   0.0000000   0.2750000   0.0000000), wk =   0.0219780
        k(   11) = (   0.0000000   0.2500000   0.0000000), wk =   0.0219780
        k(   12) = (   0.0000000   0.2250000   0.0000000), wk =   0.0219780
        k(   13) = (   0.0000000   0.2000000   0.0000000), wk =   0.0219780
        k(   14) = (   0.0000000   0.1750000   0.0000000), wk =   0.0219780
        k(   15) = (   0.0000000   0.1500000   0.0000000), wk =   0.0219780
        k(   16) = (   0.0000000   0.1250000   0.0000000), wk =   0.0219780
        k(   17) = (   0.0000000   0.1000000   0.0000000), wk =   0.0219780
        k(   18) = (   0.0000000   0.0750000   0.0000000), wk =   0.0219780
        k(   19) = (   0.0000000   0.0500000   0.0000000), wk =   0.0219780
        k(   20) = (   0.0000000   0.0250000   0.0000000), wk =   0.0219780
        k(   21) = (   0.0000000   0.0000000   0.0000000), wk =   0.0219780
        k(   22) = (  -0.0166667   0.0000000  -0.0166667), wk =   0.0219780
        k(   23) = (  -0.0333333   0.0000000  -0.0333333), wk =   0.0219780
        k(   24) = (  -0.0500000   0.0000000  -0.0500000), wk =   0.0219780
        k(   25) = (  -0.0666667   0.0000000  -0.0666667), wk =   0.0219780
        k(   26) = (  -0.0833333   0.0000000  -0.0833333), wk =   0.0219780
        k(   27) = (  -0.1000000   0.0000000  -0.1000000), wk =   0.0219780
        k(   28) = (  -0.1166667   0.0000000  -0.1166667), wk =   0.0219780
        k(   29) = (  -0.1333333   0.0000000  -0.1333333), wk =   0.0219780
        k(   30) = (  -0.1500000   0.0000000  -0.1500000), wk =   0.0219780
        k(   31) = (  -0.1666667   0.0000000  -0.1666667), wk =   0.0219780
        k(   32) = (  -0.1833333   0.0000000  -0.1833333), wk =   0.0219780
        k(   33) = (  -0.2000000   0.0000000  -0.2000000), wk =   0.0219780
        k(   34) = (  -0.2166667   0.0000000  -0.2166667), wk =   0.0219780
        k(   35) = (  -0.2333333   0.0000000  -0.2333333), wk =   0.0219780
        k(   36) = (  -0.2500000   0.0000000  -0.2500000), wk =   0.0219780
        k(   37) = (  -0.2666667   0.0000000  -0.2666667), wk =   0.0219780
        k(   38) = (  -0.2833333   0.0000000  -0.2833333), wk =   0.0219780
        k(   39) = (  -0.3000000   0.0000000  -0.3000000), wk =   0.0219780
        k(   40) = (  -0.3166667   0.0000000  -0.3166667), wk =   0.0219780
        k(   41) = (  -0.3333333   0.0000000  -0.3333333), wk =   0.0219780
        k(   42) = (  -0.3500000   0.0000000  -0.3500000), wk =   0.0219780
        k(   43) = (  -0.3666667   0.0000000  -0.3666667), wk =   0.0219780
        k(   44) = (  -0.3833333   0.0000000  -0.3833333), wk =   0.0219780
        k(   45) = (  -0.4000000   0.0000000  -0.4000000), wk =   0.0219780
        k(   46) = (  -0.4166667   0.0000000  -0.4166667), wk =   0.0219780
        k(   47) = (  -0.4333333   0.0000000  -0.4333333), wk =   0.0219780
        k(   48) = (  -0.4500000   0.0000000  -0.4500000), wk =   0.0219780
        k(   49) = (  -0.4666667   0.0000000  -0.4666667), wk =   0.0219780
        k(   50) = (  -0.4833333   0.0000000  -0.4833333), wk =   0.0219780
        k(   51) = (  -0.5000000   0.0000000  -0.5000000), wk =   0.0219780
        k(   52) = (  -0.4875000   0.0250000  -0.4875000), wk =   0.0219780
        k(   53) = (  -0.4750000   0.0500000  -0.4750000), wk =   0.0219780
        k(   54) = (  -0.4625000   0.0750000  -0.4625000), wk =   0.0219780
        k(   55) = (  -0.4500000   0.1000000  -0.4500000), wk =   0.0219780
        k(   56) = (  -0.4375000   0.1250000  -0.4375000), wk =   0.0219780
        k(   57) = (  -0.4250000   0.1500000  -0.4250000), wk =   0.0219780
        k(   58) = (  -0.4125000   0.1750000  -0.4125000), wk =   0.0219780
        k(   59) = (  -0.4000000   0.2000000  -0.4000000), wk =   0.0219780
        k(   60) = (  -0.3875000   0.2250000  -0.3875000), wk =   0.0219780
        k(   61) = (  -0.3750000   0.2500000  -0.3750000), wk =   0.0219780
        k(   62) = (  -0.3625000   0.2416667  -0.3625000), wk =   0.0219780
        k(   63) = (  -0.3500000   0.2333333  -0.3500000), wk =   0.0219780
        k(   64) = (  -0.3375000   0.2250000  -0.3375000), wk =   0.0219780
        k(   65) = (  -0.3250000   0.2166667  -0.3250000), wk =   0.0219780
        k(   66) = (  -0.3125000   0.2083333  -0.3125000), wk =   0.0219780
        k(   67) = (  -0.3000000   0.2000000  -0.3000000), wk =   0.0219780
        k(   68) = (  -0.2875000   0.1916667  -0.2875000), wk =   0.0219780
        k(   69) = (  -0.2750000   0.1833333  -0.2750000), wk =   0.0219780
        k(   70) = (  -0.2625000   0.1750000  -0.2625000), wk =   0.0219780
        k(   71) = (  -0.2500000   0.1666667  -0.2500000), wk =   0.0219780
        k(   72) = (  -0.2375000   0.1583333  -0.2375000), wk =   0.0219780
        k(   73) = (  -0.2250000   0.1500000  -0.2250000), wk =   0.0219780
        k(   74) = (  -0.2125000   0.1416667  -0.2125000), wk =   0.0219780
        k(   75) = (  -0.2000000   0.1333333  -0.2000000), wk =   0.0219780
        k(   76) = (  -0.1875000   0.1250000  -0.1875000), wk =   0.0219780
        k(   77) = (  -0.1750000   0.1166667  -0.1750000), wk =   0.0219780
        k(   78) = (  -0.1625000   0.1083333  -0.1625000), wk =   0.0219780
        k(   79) = (  -0.1500000   0.1000000  -0.1500000), wk =   0.0219780
        k(   80) = (  -0.1375000   0.0916667  -0.1375000), wk =   0.0219780
        k(   81) = (  -0.1250000   0.0833333  -0.1250000), wk =   0.0219780
        k(   82) = (  -0.1125000   0.0750000  -0.1125000), wk =   0.0219780
        k(   83) = (  -0.1000000   0.0666667  -0.1000000), wk =   0.0219780
        k(   84) = (  -0.0875000   0.0583333  -0.0875000), wk =   0.0219780
        k(   85) = (  -0.0750000   0.0500000  -0.0750000), wk =   0.0219780
        k(   86) = (  -0.0625000   0.0416667  -0.0625000), wk =   0.0219780
        k(   87) = (  -0.0500000   0.0333333  -0.0500000), wk =   0.0219780
        k(   88) = (  -0.0375000   0.0250000  -0.0375000), wk =   0.0219780
        k(   89) = (  -0.0250000   0.0166667  -0.0250000), wk =   0.0219780
        k(   90) = (  -0.0125000   0.0083333  -0.0125000), wk =   0.0219780
        k(   91) = (   0.0000000   0.0000000   0.0000000), wk =   0.0219780

     Dense  grid:     5961 G-vectors     FFT dimensions: (  32,  32,  32)

     Dynamical RAM for                 wfc:       0.02 MB

     Dynamical RAM for     wfc (w. buffer):       0.02 MB

     Dynamical RAM for           str. fact:       0.02 MB

     Dynamical RAM for           local pot:       0.00 MB

     Dynamical RAM for          nlocal pot:       0.10 MB

     Dynamical RAM for                qrad:       0.88 MB

     Dynamical RAM for          rho,v,vnew:       0.26 MB

     Dynamical RAM for           G-vectors:       0.10 MB

     Dynamical RAM for          h,s,v(r/c):       0.01 MB

     Dynamical RAM for          <psi|beta>:       0.00 MB

     Dynamical RAM for                 psi:       0.05 MB

     Dynamical RAM for                hpsi:       0.05 MB

     Dynamical RAM for                spsi:       0.05 MB

     Dynamical RAM for      wfcinit/wfcrot:       0.05 MB

     Dynamical RAM for           addusdens:       4.28 MB

     Estimated static dynamical RAM per process >       1.74 MB

     Estimated max dynamical RAM per process >       6.02 MB

     Estimated total dynamical RAM >      24.07 MB

     Check: negative core charge=   -0.000004

     The potential is recalculated from file :
     ./tmp/silicon.save/charge-density

     Starting wfcs are    8 randomized atomic wfcs

     Band Structure Calculation
     Davidson diagonalization with overlap

     Computing kpt #:     1  of    91
     total cpu time spent up to now is        3.4 secs

     Computing kpt #:     2  of    91
     total cpu time spent up to now is        6.2 secs

     Computing kpt #:     3  of    91
     total cpu time spent up to now is       10.0 secs

     Computing kpt #:     4  of    91
     total cpu time spent up to now is       13.6 secs

     Computing kpt #:     5  of    91
     total cpu time spent up to now is       18.3 secs

     Computing kpt #:     6  of    91
     total cpu time spent up to now is       23.5 secs

     Computing kpt #:     7  of    91
     total cpu time spent up to now is       29.8 secs

     Computing kpt #:     8  of    91
     total cpu time spent up to now is       36.6 secs

     Computing kpt #:     9  of    91
     total cpu time spent up to now is       46.0 secs

     Computing kpt #:    10  of    91
     total cpu time spent up to now is       50.9 secs

     Computing kpt #:    11  of    91
     total cpu time spent up to now is       55.1 secs

     Computing kpt #:    12  of    91
     total cpu time spent up to now is       57.8 secs

     Computing kpt #:    13  of    91
     total cpu time spent up to now is       60.3 secs

     Computing kpt #:    14  of    91
     total cpu time spent up to now is       63.2 secs

     Computing kpt #:    15  of    91
     total cpu time spent up to now is       65.8 secs

     Computing kpt #:    16  of    91
     total cpu time spent up to now is       67.9 secs

     Computing kpt #:    17  of    91
     total cpu time spent up to now is       69.7 secs

     Computing kpt #:    18  of    91
     total cpu time spent up to now is       72.4 secs

     Computing kpt #:    19  of    91
     total cpu time spent up to now is       74.8 secs

     Computing kpt #:    20  of    91
     total cpu time spent up to now is       77.0 secs

     Computing kpt #:    21  of    91
     total cpu time spent up to now is       79.2 secs

     Computing kpt #:    22  of    91
     total cpu time spent up to now is       81.1 secs

     Computing kpt #:    23  of    91
     total cpu time spent up to now is       83.4 secs

     Computing kpt #:    24  of    91
     total cpu time spent up to now is       85.3 secs

     Computing kpt #:    25  of    91
     total cpu time spent up to now is       87.5 secs

     Computing kpt #:    26  of    91
     total cpu time spent up to now is       90.1 secs

     Computing kpt #:    27  of    91
     total cpu time spent up to now is       92.4 secs

     Computing kpt #:    28  of    91
     total cpu time spent up to now is       95.4 secs

     Computing kpt #:    29  of    91
     total cpu time spent up to now is       98.8 secs

     Computing kpt #:    30  of    91
     total cpu time spent up to now is      102.1 secs

     Computing kpt #:    31  of    91
     total cpu time spent up to now is      105.6 secs

     Computing kpt #:    32  of    91
     total cpu time spent up to now is      108.4 secs

     Computing kpt #:    33  of    91
     total cpu time spent up to now is      111.9 secs

     Computing kpt #:    34  of    91
     total cpu time spent up to now is      115.1 secs

     Computing kpt #:    35  of    91
     total cpu time spent up to now is      117.1 secs

     Computing kpt #:    36  of    91
     total cpu time spent up to now is      119.5 secs

     Computing kpt #:    37  of    91
     total cpu time spent up to now is      121.3 secs

     Computing kpt #:    38  of    91
     total cpu time spent up to now is      123.4 secs

     Computing kpt #:    39  of    91
     total cpu time spent up to now is      125.6 secs

     Computing kpt #:    40  of    91
     total cpu time spent up to now is      128.1 secs

     Computing kpt #:    41  of    91
     total cpu time spent up to now is      130.7 secs

     Computing kpt #:    42  of    91
     total cpu time spent up to now is      133.1 secs

     Computing kpt #:    43  of    91
     total cpu time spent up to now is      136.0 secs

     Computing kpt #:    44  of    91
     total cpu time spent up to now is      138.5 secs

     Computing kpt #:    45  of    91
     total cpu time spent up to now is      141.4 secs

     Computing kpt #:    46  of    91
     total cpu time spent up to now is      145.2 secs

     Computing kpt #:    47  of    91
     total cpu time spent up to now is      147.5 secs

     Computing kpt #:    48  of    91
     total cpu time spent up to now is      150.5 secs

     Computing kpt #:    49  of    91
     total cpu time spent up to now is      153.8 secs

     Computing kpt #:    50  of    91
     total cpu time spent up to now is      157.2 secs

     Computing kpt #:    51  of    91
     total cpu time spent up to now is      160.7 secs

     Computing kpt #:    52  of    91
     total cpu time spent up to now is      163.6 secs

     Computing kpt #:    53  of    91
     total cpu time spent up to now is      166.4 secs

     Computing kpt #:    54  of    91
     total cpu time spent up to now is      169.8 secs

     Computing kpt #:    55  of    91
     total cpu time spent up to now is      172.3 secs

     Computing kpt #:    56  of    91
     total cpu time spent up to now is      175.4 secs

     Computing kpt #:    57  of    91
     total cpu time spent up to now is      178.1 secs

     Computing kpt #:    58  of    91
     total cpu time spent up to now is      180.5 secs

     Computing kpt #:    59  of    91
     total cpu time spent up to now is      197.0 secs

     Computing kpt #:    60  of    91
     total cpu time spent up to now is      202.0 secs

     Computing kpt #:    61  of    91
     total cpu time spent up to now is      206.5 secs

     Computing kpt #:    62  of    91
     total cpu time spent up to now is      209.9 secs

     Computing kpt #:    63  of    91
     total cpu time spent up to now is      213.0 secs

     Computing kpt #:    64  of    91
     total cpu time spent up to now is      216.0 secs

     Computing kpt #:    65  of    91
     total cpu time spent up to now is      218.8 secs

     Computing kpt #:    66  of    91
     total cpu time spent up to now is      220.9 secs

     Computing kpt #:    67  of    91
     total cpu time spent up to now is      223.7 secs

     Computing kpt #:    68  of    91
     total cpu time spent up to now is      225.6 secs

     Computing kpt #:    69  of    91
     total cpu time spent up to now is      227.8 secs

     Computing kpt #:    70  of    91
     total cpu time spent up to now is      230.1 secs

     Computing kpt #:    71  of    91
     total cpu time spent up to now is      232.8 secs

     Computing kpt #:    72  of    91
     total cpu time spent up to now is      235.4 secs

     Computing kpt #:    73  of    91
     total cpu time spent up to now is      237.6 secs

     Computing kpt #:    74  of    91
     total cpu time spent up to now is      240.2 secs

     Computing kpt #:    75  of    91
     total cpu time spent up to now is      242.0 secs

     Computing kpt #:    76  of    91
     total cpu time spent up to now is      244.1 secs

     Computing kpt #:    77  of    91
     total cpu time spent up to now is      247.3 secs

     Computing kpt #:    78  of    91
     total cpu time spent up to now is      250.4 secs

     Computing kpt #:    79  of    91
     total cpu time spent up to now is      253.8 secs

     Computing kpt #:    80  of    91
     total cpu time spent up to now is      257.3 secs

     Computing kpt #:    81  of    91
     total cpu time spent up to now is      261.0 secs

     Computing kpt #:    82  of    91
     total cpu time spent up to now is      265.3 secs

     Computing kpt #:    83  of    91
     total cpu time spent up to now is      270.0 secs

     Computing kpt #:    84  of    91
     total cpu time spent up to now is      274.9 secs

     Computing kpt #:    85  of    91
     total cpu time spent up to now is      279.0 secs

     Computing kpt #:    86  of    91
     total cpu time spent up to now is      281.4 secs

     Computing kpt #:    87  of    91
     total cpu time spent up to now is      284.0 secs

     Computing kpt #:    88  of    91
     total cpu time spent up to now is      286.6 secs

     Computing kpt #:    89  of    91
     total cpu time spent up to now is      289.3 secs

     Computing kpt #:    90  of    91
     total cpu time spent up to now is      292.0 secs

     Computing kpt #:    91  of    91
     total cpu time spent up to now is      293.9 secs

     ethr =  1.25E-08,  avg # of iterations = 24.4

     total cpu time spent up to now is      293.9 secs

     End of band structure calculation

          k = 0.5000 0.5000 0.5000 (   754 PWs)   bands (ev):

    -3.4238  -0.7640   5.0101   5.0101   7.7504   9.5526   9.5526  13.9469

          k = 0.4750 0.4750 0.4750 (   754 PWs)   bands (ev):

    -3.4593  -0.7131   5.0146   5.0146   7.7556   9.5578   9.5578  13.9549

          k = 0.4500 0.4500 0.4500 (   763 PWs)   bands (ev):

    -3.5581  -0.5679   5.0281   5.0281   7.7710   9.5731   9.5731  13.9783

          k = 0.4250 0.4250 0.4250 (   760 PWs)   bands (ev):

    -3.7030  -0.3459   5.0505   5.0505   7.7968   9.5973   9.5973  14.0147

          k = 0.4000 0.4000 0.4000 (   763 PWs)   bands (ev):

    -3.8757  -0.0654   5.0819   5.0819   7.8325   9.6285   9.6285  14.0592

          k = 0.3750 0.3750 0.3750 (   763 PWs)   bands (ev):

    -4.0623   0.2593   5.1221   5.1221   7.8783   9.6636   9.6636  14.1008

          k = 0.3500 0.3500 0.3500 (   757 PWs)   bands (ev):

    -4.2530   0.6180   5.1711   5.1711   7.9337   9.6988   9.6988  14.1148

          k = 0.3250 0.3250 0.3250 (   751 PWs)   bands (ev):

    -4.4413   1.0039   5.2288   5.2288   7.9984   9.7284   9.7284  14.0506

          k = 0.3000 0.3000 0.3000 (   757 PWs)   bands (ev):

    -4.6232   1.4120   5.2947   5.2947   8.0718   9.7461   9.7461  13.8166

          k = 0.2750 0.2750 0.2750 (   757 PWs)   bands (ev):

    -4.7955   1.8386   5.3685   5.3685   8.1532   9.7449   9.7449  13.5266

          k = 0.2500 0.2500 0.2500 (   754 PWs)   bands (ev):

    -4.9564   2.2808   5.4496   5.4496   8.2415   9.7181   9.7181  13.1335

          k = 0.2250 0.2250 0.2250 (   751 PWs)   bands (ev):

    -5.1045   2.7355   5.5373   5.5373   8.3354   9.6616   9.6616  12.7079

          k = 0.2000 0.2000 0.2000 (   751 PWs)   bands (ev):

    -5.2388   3.1998   5.6302   5.6302   8.4328   9.5755   9.5755  12.2664

          k = 0.1750 0.1750 0.1750 (   760 PWs)   bands (ev):

    -5.3585   3.6704   5.7268   5.7268   8.5311   9.4639   9.4639  11.8175

          k = 0.1500 0.1500 0.1500 (   749 PWs)   bands (ev):

    -5.4631   4.1428   5.8249   5.8249   8.6266   9.3351   9.3351  11.3678

          k = 0.1250 0.1250 0.1250 (   743 PWs)   bands (ev):

    -5.5522   4.6107   5.9212   5.9212   8.7141   9.1991   9.1991  10.9251

          k = 0.1000 0.1000 0.1000 (   737 PWs)   bands (ev):

    -5.6255   5.0644   6.0118   6.0118   8.7859   9.0667   9.0667  10.5022

          k = 0.0750 0.0750 0.0750 (   737 PWs)   bands (ev):

    -5.6826   5.4877   6.0918   6.0918   8.8306   8.9487   8.9487  10.1216

          k = 0.0500 0.0500 0.0500 (   737 PWs)   bands (ev):

    -5.7236   5.8527   6.1552   6.1552   8.8342   8.8552   8.8552   9.8200

          k = 0.0250 0.0250 0.0250 (   737 PWs)   bands (ev):

    -5.7482   6.1134   6.1964   6.1964   8.7949   8.7949   8.7992   9.6367

          k = 0.0000 0.0000 0.0000 (   725 PWs)   bands (ev):

    -5.7564   6.2107   6.2107   6.2107   8.7740   8.7740   8.7740   9.5790

          k = 0.0333 0.0000 0.0000 (   733 PWs)   bands (ev):

    -5.7516   6.1772   6.1895   6.1895   8.7619   8.8012   8.8012   9.6119

          k = 0.0667 0.0000 0.0000 (   733 PWs)   bands (ev):

    -5.7370   6.0806   6.1285   6.1285   8.7262   8.8801   8.8801   9.7058

          k = 0.1000 0.0000 0.0000 (   733 PWs)   bands (ev):

    -5.7126   5.9308   6.0346   6.0346   8.6687   9.0040   9.0040   9.8491

          k = 0.1333 0.0000 0.0000 (   733 PWs)   bands (ev):

    -5.6786   5.7393   5.9158   5.9158   8.5923   9.1646   9.1646  10.0260

          k = 0.1667 0.0000 0.0000 (   733 PWs)   bands (ev):

    -5.6349   5.5170   5.7799   5.7799   8.5001   9.3541   9.3541  10.2186

          k = 0.2000 0.0000 0.0000 (   737 PWs)   bands (ev):

    -5.5815   5.2723   5.6331   5.6331   8.3956   9.5661   9.5661  10.4053

          k = 0.2333 0.0000 0.0000 (   745 PWs)   bands (ev):

    -5.5185   5.0115   5.4802   5.4802   8.2821   9.7958   9.7958  10.5584

          k = 0.2667 0.0000 0.0000 (   753 PWs)   bands (ev):

    -5.4459   4.7392   5.3248   5.3248   8.1627  10.0394  10.0394  10.6424

          k = 0.3000 0.0000 0.0000 (   753 PWs)   bands (ev):

    -5.3638   4.4586   5.1694   5.1694   8.0399  10.2942  10.2942  10.6282

          k = 0.3333 0.0000 0.0000 (   753 PWs)   bands (ev):

    -5.2722   4.1719   5.0159   5.0159   7.9161  10.5154  10.5584  10.5584

          k = 0.3667 0.0000 0.0000 (   745 PWs)   bands (ev):

    -5.1711   3.8807   4.8659   4.8659   7.7934  10.3305  10.8301  10.8301

          k = 0.4000 0.0000 0.0000 (   745 PWs)   bands (ev):

    -5.0607   3.5864   4.7203   4.7203   7.6733  10.1038  11.1080  11.1080

          k = 0.4333 0.0000 0.0000 (   745 PWs)   bands (ev):

    -4.9410   3.2897   4.5802   4.5802   7.5572   9.8565  11.3914  11.3914

          k = 0.4667 0.0000 0.0000 (   745 PWs)   bands (ev):

    -4.8121   2.9914   4.4460   4.4460   7.4464   9.6018  11.6794  11.6794

          k = 0.5000 0.0000 0.0000 (   729 PWs)   bands (ev):

    -4.6741   2.6921   4.3183   4.3183   7.3418   9.3475  11.9716  11.9716

          k = 0.5333 0.0000 0.0000 (   729 PWs)   bands (ev):

    -4.5271   2.3923   4.1976   4.1976   7.2443   9.0986  12.2672  12.2672

          k = 0.5667 0.0000 0.0000 (   745 PWs)   bands (ev):

    -4.3712   2.0925   4.0841   4.0841   7.1546   8.8581  12.5660  12.5660

          k = 0.6000 0.0000 0.0000 (   745 PWs)   bands (ev):

    -4.2065   1.7931   3.9782   3.9782   7.0734   8.6282  12.8677  12.8677

          k = 0.6333 0.0000 0.0000 (   741 PWs)   bands (ev):

    -4.0333   1.4945   3.8801   3.8801   7.0013   8.4104  13.1722  13.1722

          k = 0.6667 0.0000 0.0000 (   749 PWs)   bands (ev):

    -3.8515   1.1972   3.7901   3.7901   6.9387   8.2053  13.4790  13.4790

          k = 0.7000 0.0000 0.0000 (   749 PWs)   bands (ev):

    -3.6614   0.9017   3.7082   3.7082   6.8861   8.0138  13.7882  13.7882

          k = 0.7333 0.0000 0.0000 (   753 PWs)   bands (ev):

    -3.4632   0.6082   3.6346   3.6346   6.8439   7.8363  14.0995  14.0995

          k = 0.7667 0.0000 0.0000 (   753 PWs)   bands (ev):

    -3.2570   0.3174   3.5694   3.5694   6.8125   7.6728  14.4126  14.4126

          k = 0.8000 0.0000 0.0000 (   753 PWs)   bands (ev):

    -3.0430   0.0296   3.5128   3.5128   6.7923   7.5236  14.7270  14.7270

          k = 0.8333 0.0000 0.0000 (   749 PWs)   bands (ev):

    -2.8216  -0.2548   3.4647   3.4647   6.7835   7.3885  15.0419  15.0419

          k = 0.8667 0.0000 0.0000 (   749 PWs)   bands (ev):

    -2.5928  -0.5353   3.4253   3.4253   6.7865   7.2676  15.3554  15.3554

          k = 0.9000 0.0000 0.0000 (   745 PWs)   bands (ev):

    -2.3570  -0.8115   3.3946   3.3946   6.8015   7.1607  15.6636  15.6636

          k = 0.9333 0.0000 0.0000 (   741 PWs)   bands (ev):

    -2.1145  -1.0830   3.3727   3.3727   6.8290   7.0676  15.9571  15.9571

          k = 0.9667 0.0000 0.0000 (   740 PWs)   bands (ev):

    -1.8655  -1.3494   3.3595   3.3595   6.8690   6.9881  16.2060  16.2060

          k = 1.0000 0.0000 0.0000 (   740 PWs)   bands (ev):

    -1.6103  -1.6103   3.3551   3.3551   6.9220   6.9220  16.3200  16.3200

          k = 1.0000 0.0250 0.0250 (   740 PWs)   bands (ev):

    -1.6126  -1.6044   3.3176   3.3595   6.9270   6.9775  16.2585  16.2873

          k = 1.0000 0.0500 0.0500 (   746 PWs)   bands (ev):

    -1.6196  -1.5867   3.2127   3.3727   6.9422   7.1369  16.0911  16.1936

          k = 1.0000 0.0750 0.0750 (   748 PWs)   bands (ev):

    -1.6322  -1.5571   3.0580   3.3946   6.9675   7.3833  15.8521  16.0492

          k = 1.0000 0.1000 0.1000 (   744 PWs)   bands (ev):

    -1.6516  -1.5157   2.8738   3.4252   7.0028   7.6976  15.5711  15.8667

          k = 1.0000 0.1250 0.1250 (   746 PWs)   bands (ev):

    -1.6796  -1.4625   2.6778   3.4643   7.0480   8.0634  15.2672  15.6572

          k = 1.0000 0.1500 0.1500 (   744 PWs)   bands (ev):

    -1.7184  -1.3974   2.4840   3.5119   7.1030   8.4688  14.9520  15.4297

          k = 1.0000 0.1750 0.1750 (   746 PWs)   bands (ev):

    -1.7702  -1.3207   2.3028   3.5677   7.1675   8.9052  14.6323  15.1906

          k = 1.0000 0.2000 0.2000 (   746 PWs)   bands (ev):

    -1.8373  -1.2322   2.1423   3.6316   7.2415   9.3662  14.3126  14.8896

          k = 1.0000 0.2250 0.2250 (   746 PWs)   bands (ev):

    -1.9215  -1.1320   2.0083   3.7033   7.3245   9.8471  13.9955  14.5556

          k = 1.0000 0.2500 0.2500 (   740 PWs)   bands (ev):

    -2.0240  -1.0201   1.9047   3.7826   7.4164  10.3436  13.6832  14.2314

          k = 0.9667 0.2417 0.2417 (   744 PWs)   bands (ev):

    -2.0279  -1.0217   1.9496   3.7593   7.3906  10.1823  13.7086  14.0989

          k = 0.9333 0.2333 0.2333 (   744 PWs)   bands (ev):

    -2.1136  -0.9452   2.0228   3.7450   7.3773  10.0345  13.6241  13.8810

          k = 0.9000 0.2250 0.2250 (   746 PWs)   bands (ev):

    -2.2594  -0.8086   2.1202   3.7398   7.3762   9.9008  13.4925  13.6582

          k = 0.8667 0.2167 0.2167 (   748 PWs)   bands (ev):

    -2.4393  -0.6341   2.2378   3.7438   7.3869   9.7823  13.3436  13.4351

          k = 0.8333 0.2083 0.2083 (   750 PWs)   bands (ev):

    -2.6369  -0.4356   2.3726   3.7571   7.4089   9.6800  13.1890  13.2128

          k = 0.8000 0.2000 0.2000 (   756 PWs)   bands (ev):

    -2.8426  -0.2205   2.5217   3.7798   7.4411   9.5953  12.9920  13.0330

          k = 0.7667 0.1917 0.1917 (   752 PWs)   bands (ev):

    -3.0509   0.0075   2.6830   3.8118   7.4824   9.5296  12.7729  12.8775

          k = 0.7333 0.1833 0.1833 (   754 PWs)   bands (ev):

    -3.2583   0.2463   2.8544   3.8533   7.5313   9.4847  12.5556  12.7226

          k = 0.7000 0.1750 0.1750 (   752 PWs)   bands (ev):

    -3.4625   0.4944   3.0340   3.9041   7.5860   9.4626  12.3404  12.5678

          k = 0.6667 0.1667 0.1667 (   752 PWs)   bands (ev):

    -3.6617   0.7512   3.2201   3.9642   7.6442   9.4650  12.1274  12.4120

          k = 0.6333 0.1583 0.1583 (   752 PWs)   bands (ev):

    -3.8549   1.0161   3.4114   4.0336   7.7042   9.4938  11.9171  12.2538

          k = 0.6000 0.1500 0.1500 (   749 PWs)   bands (ev):

    -4.0410   1.2885   3.6062   4.1122   7.7640   9.5498  11.7101  12.0914

          k = 0.5667 0.1417 0.1417 (   749 PWs)   bands (ev):

    -4.2193   1.5682   3.8033   4.1997   7.8227   9.6326  11.5075  11.9230

          k = 0.5333 0.1333 0.1333 (   748 PWs)   bands (ev):

    -4.3894   1.8548   4.0013   4.2960   7.8797   9.7401  11.3111  11.7469

          k = 0.5000 0.1250 0.1250 (   750 PWs)   bands (ev):

    -4.5506   2.1480   4.1991   4.4009   7.9355   9.8669  11.1244  11.5615

          k = 0.4667 0.1167 0.1167 (   754 PWs)   bands (ev):

    -4.7027   2.4473   4.3955   4.5140   7.9911  10.0016  10.9556  11.3656

          k = 0.4333 0.1083 0.1083 (   752 PWs)   bands (ev):

    -4.8452   2.7524   4.5894   4.6351   8.0476  10.1179  10.8261  11.1594

          k = 0.4000 0.1000 0.1000 (   753 PWs)   bands (ev):

    -4.9781   3.0626   4.7634   4.7795   8.1060  10.1618  10.7821  10.9432

          k = 0.3667 0.0917 0.0917 (   754 PWs)   bands (ev):

    -5.1009   3.3771   4.8986   4.9647   8.1673  10.0992  10.7185  10.8452

          k = 0.3333 0.0833 0.0833 (   756 PWs)   bands (ev):

    -5.2136   3.6952   5.0396   5.1437   8.2319   9.9727  10.4876  10.9511

          k = 0.3000 0.0750 0.0750 (   753 PWs)   bands (ev):

    -5.3160   4.0154   5.1855   5.3154   8.2997   9.8239  10.2534  11.0216

          k = 0.2667 0.0667 0.0667 (   755 PWs)   bands (ev):

    -5.4079   4.3361   5.3347   5.4781   8.3702   9.6701  10.0192  10.9962

          k = 0.2333 0.0583 0.0583 (   749 PWs)   bands (ev):

    -5.4892   4.6550   5.4855   5.6302   8.4421   9.5182   9.7889  10.8561

          k = 0.2000 0.0500 0.0500 (   743 PWs)   bands (ev):

    -5.5599   4.9685   5.6350   5.7699   8.5137   9.3716   9.5670  10.6352

          k = 0.1667 0.0417 0.0417 (   738 PWs)   bands (ev):

    -5.6198   5.2716   5.7796   5.8949   8.5823   9.2322   9.3584  10.3800

          k = 0.1333 0.0333 0.0333 (   737 PWs)   bands (ev):

    -5.6689   5.5565   5.9146   6.0028   8.6450   9.1014   9.1696  10.1265

          k = 0.1000 0.0250 0.0250 (   737 PWs)   bands (ev):

    -5.7072   5.8118   6.0333   6.0909   8.6984   8.9810   9.0079   9.9014

          k = 0.0667 0.0167 0.0167 (   737 PWs)   bands (ev):

    -5.7345   6.0206   6.1277   6.1565   8.7394   8.8768   8.8823   9.7263

          k = 0.0333 0.0083 0.0083 (   737 PWs)   bands (ev):

    -5.7509   6.1607   6.1892   6.1970   8.7652   8.8018   8.8019   9.6163

          k = 0.0000 0.0000 0.0000 (   725 PWs)   bands (ev):

    -5.7564   6.2107   6.2107   6.2107   8.7740   8.7740   8.7740   9.5790

     Writing all to output data dir ./tmp/silicon.save/ :
     XML data file, pseudopotentials, collected wavefunctions

     init_run     :      0.20s CPU      0.20s WALL (       1 calls)
     electrons    :    191.34s CPU    293.61s WALL (       1 calls)

     Called by init_run:
     wfcinit      :      0.00s CPU      0.00s WALL (       1 calls)
     wfcinit:atom :      0.00s CPU      0.01s WALL (      91 calls)
     wfcinit:wfcr :     10.95s CPU     17.20s WALL (      91 calls)
     potinit      :      0.01s CPU      0.01s WALL (       1 calls)
     hinit0       :      0.17s CPU      0.17s WALL (       1 calls)

     Called by electrons:
     c_bands      :    191.33s CPU    293.61s WALL (       1 calls)
     v_of_rho     :      0.00s CPU      0.00s WALL (       1 calls)
     v_h          :      0.00s CPU      0.00s WALL (       1 calls)
     v_xc         :      0.00s CPU      0.00s WALL (       1 calls)
     newd         :      0.01s CPU      0.01s WALL (       1 calls)

     Called by c_bands:
     init_us_2    :      0.01s CPU      0.01s WALL (      91 calls)
     cegterg      :    180.04s CPU    275.36s WALL (     147 calls)

     Called by sum_band:

     Called by *egterg:
     cdiaghg      :      0.54s CPU      0.85s WALL (    2308 calls)
     cegterg:over :    102.81s CPU    123.41s WALL (    2217 calls)
     cegterg:upda :      0.03s CPU      0.06s WALL (    2217 calls)
     cegterg:last :      0.08s CPU      0.17s WALL (    1591 calls)
     h_psi        :     67.22s CPU    127.93s WALL (    2455 calls)
     s_psi        :      4.36s CPU     20.27s WALL (    2455 calls)
     g_psi        :      0.01s CPU      0.02s WALL (    2217 calls)

     Called by h_psi:
     h_psi:calbec :     55.85s CPU     89.96s WALL (    2455 calls)
     vloc_psi     :      5.38s CPU      7.04s WALL (    2455 calls)
     add_vuspsi   :      5.97s CPU     30.88s WALL (    2455 calls)

     General routines
     calbec       :     55.84s CPU     89.95s WALL (    2455 calls)
     fft          :      0.10s CPU      0.10s WALL (      12 calls)
     fftw         :      5.03s CPU      6.66s WALL (   26858 calls)
     davcio       :      0.00s CPU      0.01s WALL (     182 calls)

     Parallel routines

     PWSCF        :   3m11.71s CPU   4m53.99s WALL


   This run was terminated on:   4:27:48  17Nov2025            

=------------------------------------------------------------------------------=
   JOB DONE.
=------------------------------------------------------------------------------=
